100
1000
200
200
199
199
199
199
199
198
198
198
197
196
196
196
195
195
195
195
194
193
193
191
190
190
189
189
188
188
188
188
188
187
186
186
183
183
182
182
181
181
178
178
178
178
177
177
177
176
175
175
175
174
174
173
171
171
169
167
166
165
165
165
164
163
163
163
162
162
162
162
160
160
160
159
159
159
159
158
158
158
157
157
157
157
156
155
155
155
155
155
154
154
154
154
153
153
152
151
150
150
